c Result of efficient AIG-to-CNF conversion using package CNF
p cnf 653 2062
2 -3 -114 -174 -233 0
-2 233 0
-2 3 0
-2 174 0
-2 114 0
3 -4 -59 -74 -84 0
-3 84 0
-3 4 0
-3 74 0
-3 59 0
4 -5 -12 -19 -34 0
-4 34 0
-4 5 0
-4 19 0
-4 12 0
5 6 7 -8 9 0
-5 -9 0
-5 8 0
-5 -6 0
-5 -7 0
6 495 -605 0
-6 -495 0
-6 605 0
7 -495 605 0
-7 495 0
-7 -605 0
-8 457 497 498 0
8 -457 0
8 -498 0
8 -497 0
-9 497 -498 0
-9 457 -497 498 0
-9 497 10 0
-9 -497 498 -10 0
9 -497 -498 0
9 497 498 -10 0
9 -457 -497 10 0
10 457 -11 0
10 -457 11 0
-10 -457 -11 0
-10 457 11 0
11 499 -604 0
11 -499 604 0
-11 -499 -604 0
-11 499 604 0
12 498 -499 -13 0
12 498 -604 -13 0
12 -498 499 604 -13 0
-12 -498 -499 0
-12 -498 -604 0
-12 13 0
-12 498 499 604 0
13 499 -14 -17 0
13 500 -14 -17 0
-13 17 0
-13 14 0
-13 -499 -500 0
14 -500 0
14 -499 0
14 -458 15 0
-14 499 500 -15 0
-14 458 499 500 0
15 458 -16 0
15 -458 16 0
-15 -458 -16 0
-15 458 16 0
16 501 -606 0
16 -501 606 0
-16 -501 -606 0
-16 501 606 0
17 499 -18 0
17 -15 -18 0
17 458 -18 0
-17 18 0
-17 -458 -499 15 0
-18 458 500 501 606 0
18 -606 0
18 -501 0
18 -458 0
18 -500 0
19 -20 -23 -28 -30 0
-19 30 0
-19 20 0
-19 28 0
-19 23 0
20 16 21 -22 0
20 500 21 -22 0
-20 -21 0
-20 22 0
-20 -500 -16 0
-21 501 -606 0
-21 500 -501 0
-21 -500 501 0
-21 458 500 0
21 -500 -501 0
21 -458 500 501 606 0
-22 459 491 501 0
22 -459 0
22 -501 0
22 -491 0
23 -459 501 24 0
23 -491 501 24 0
23 459 491 -501 24 0
-23 -459 -501 0
-23 459 491 501 0
-23 -24 0
-23 -491 -501 0
-24 25 0
-24 -502 0
-24 -460 26 0
24 502 -25 -26 0
24 460 502 -25 0
-25 -459 -491 0
-25 459 491 0
25 459 -491 0
25 -459 491 0
26 460 -27 0
26 -460 27 0
-26 -460 -27 0
-26 460 27 0
27 503 -609 0
27 -503 609 0
-27 -503 -609 0
-27 503 609 0
28 502 -503 29 0
28 -502 503 29 0
28 502 -609 29 0
-28 -29 0
-28 -502 -503 0
-28 502 503 609 0
-29 -25 0
-29 502 -26 0
-29 460 502 0
29 -502 25 0
29 -460 25 26 0
30 502 -31 0
30 503 609 -31 0
30 -503 -609 -31 0
-30 31 0
-30 -502 503 -609 0
-30 -502 -503 609 0
31 -503 504 0
31 503 -504 0
31 -461 503 32 0
-31 -503 -504 0
-31 503 504 -32 0
-31 461 503 504 0
32 461 -33 0
32 -461 33 0
-32 -461 -33 0
-32 461 33 0
33 505 -611 0
33 -505 611 0
-33 -505 -611 0
-33 505 611 0
34 -35 -48 -55 -58 0
-34 58 0
-34 35 0
-34 55 0
-34 48 0
35 -36 -42 -43 45 0
-35 -45 0
-35 36 0
-35 43 0
-35 42 0
36 504 -37 -41 0
36 33 -37 -41 0
-36 41 0
-36 37 0
-36 -504 -33 0
37 38 -39 40 0
-37 -40 0
-37 39 0
-37 -38 0
38 -461 -503 32 0
-38 461 0
-38 503 0
-38 -32 0
-39 461 504 505 611 0
39 -611 0
39 -505 0
39 -461 0
39 -504 0
-40 505 -611 0
-40 504 -505 0
-40 -504 505 0
-40 461 504 0
40 -504 -505 0
40 -461 504 505 611 0
41 -505 506 0
41 505 -506 0
41 -462 506 -507 0
-41 -505 -506 0
-41 505 506 507 0
-41 462 505 506 0
42 -506 507 0
42 505 506 -507 0
42 462 506 -507 0
-42 506 507 0
-42 -506 -507 0
-42 -462 -505 -507 0
43 -463 44 0
43 -507 44 0
43 -508 44 0
-43 -44 0
-43 463 507 508 0
44 -462 -506 -507 0
-44 462 0
-44 506 0
-44 507 0
-45 507 -508 0
-45 463 -507 508 0
-45 507 46 0
-45 -507 508 -46 0
45 -507 -508 0
45 507 508 -46 0
45 -463 -507 46 0
46 463 -47 0
46 -463 47 0
-46 -463 -47 0
-46 463 47 0
47 509 -614 0
47 -509 614 0
-47 -509 -614 0
-47 509 614 0
48 508 -509 -49 0
48 508 -614 -49 0
48 -508 509 614 -49 0
-48 -508 -509 0
-48 -508 -614 0
-48 49 0
-48 508 509 614 0
49 509 -50 -53 0
49 510 -50 -53 0
-49 53 0
-49 50 0
-49 -509 -510 0
50 -510 0
50 -509 0
50 -464 51 0
-50 509 510 -51 0
-50 464 509 510 0
51 464 -52 0
51 -464 52 0
-51 -464 -52 0
-51 464 52 0
52 511 -616 0
52 -511 616 0
-52 -511 -616 0
-52 511 616 0
53 509 -54 0
53 -51 -54 0
53 464 -54 0
-53 54 0
-53 -464 -509 51 0
-54 464 510 511 616 0
54 -616 0
54 -511 0
54 -464 0
54 -510 0
55 52 56 -57 0
55 510 56 -57 0
-55 -56 0
-55 57 0
-55 -510 -52 0
-56 511 -616 0
-56 510 -511 0
-56 -510 511 0
-56 464 510 0
56 -510 -511 0
56 -464 510 511 616 0
-57 465 511 512 0
57 -465 0
57 -512 0
57 -511 0
58 511 -512 0
58 -465 511 -513 0
58 465 -511 512 -513 0
-58 -465 -511 0
-58 465 511 512 0
-58 -511 -512 0
-58 512 513 0
59 -60 67 -68 -72 0
-59 72 0
-59 60 0
-59 68 0
-59 -67 0
60 513 -61 -62 0
60 512 -61 -62 0
-60 62 0
-60 61 0
-60 -512 -513 0
-61 466 513 514 0
61 -466 0
61 -514 0
61 -513 0
62 514 63 -65 0
62 513 -514 -65 0
62 -513 514 -65 0
-62 65 0
-62 -513 -514 0
-62 513 514 -63 0
63 466 -64 0
63 -466 64 0
-63 -466 -64 0
-63 466 64 0
64 515 -619 0
64 -515 619 0
-64 -515 -619 0
-64 515 619 0
65 -514 66 0
65 -515 66 0
65 -619 66 0
-65 -66 0
-65 514 515 619 0
66 -466 -513 63 0
-66 466 0
-66 513 0
-66 -63 0
-67 514 0
-67 -466 515 0
-67 515 619 0
67 -514 -515 0
67 466 -514 -619 0
68 514 -69 0
68 466 -69 0
68 -63 -69 0
-68 69 0
-68 -466 -514 63 0
69 -516 0
69 -515 0
69 -467 70 0
-69 515 516 -70 0
-69 467 515 516 0
70 467 -71 0
70 -467 71 0
-70 -467 -71 0
-70 467 71 0
71 517 -621 0
71 -517 621 0
-71 -517 -621 0
-71 517 621 0
72 516 -517 73 0
72 -516 517 73 0
72 516 -621 73 0
-72 -73 0
-72 -516 -517 0
-72 516 517 621 0
-73 515 0
-73 516 -70 0
-73 467 516 0
73 -515 -516 0
73 -467 -515 70 0
74 -75 -78 80 -83 0
-74 83 0
-74 75 0
-74 -80 0
-74 78 0
75 516 -76 -77 0
75 71 -76 -77 0
-75 77 0
-75 76 0
-75 -516 -71 0
76 -517 518 0
76 517 -518 0
76 -468 518 -519 0
-76 -517 -518 0
-76 517 518 519 0
-76 468 517 518 0
77 -518 519 0
77 517 518 -519 0
77 468 518 -519 0
-77 518 519 0
-77 -518 -519 0
-77 -468 -517 -519 0
78 -469 79 0
78 -519 79 0
78 -520 79 0
-78 -79 0
-78 469 519 520 0
79 -468 -518 -519 0
-79 468 0
-79 518 0
-79 519 0
-80 519 -520 0
-80 469 -519 520 0
-80 519 81 0
-80 -519 520 -81 0
80 -519 -520 0
80 519 520 -81 0
80 -469 -519 81 0
81 469 -82 0
81 -469 82 0
-81 -469 -82 0
-81 469 82 0
82 521 -624 0
82 -521 624 0
-82 -521 -624 0
-82 521 624 0
83 520 -624 0
83 -520 521 624 0
83 520 -521 0
-83 -520 -521 0
-83 -520 -624 0
-83 520 521 624 0
84 -85 -100 -102 -106 0
-84 106 0
-84 85 0
-84 102 0
-84 100 0
85 -86 -92 -95 -96 0
-85 96 0
-85 86 0
-85 95 0
-85 92 0
86 521 -87 -90 0
86 522 -87 -90 0
-86 90 0
-86 87 0
-86 -521 -522 0
87 -522 0
87 -521 0
87 -470 88 0
-87 521 522 -88 0
-87 470 521 522 0
88 470 -89 0
88 -470 89 0
-88 -470 -89 0
-88 470 89 0
89 523 -626 0
89 -523 626 0
-89 -523 -626 0
-89 523 626 0
90 521 -91 0
90 -88 -91 0
90 470 -91 0
-90 91 0
-90 -470 -521 88 0
-91 470 522 523 626 0
91 -626 0
91 -523 0
91 -470 0
91 -522 0
92 89 93 -94 0
92 522 93 -94 0
-92 -93 0
-92 94 0
-92 -522 -89 0
-93 523 -626 0
-93 522 -523 0
-93 -522 523 0
-93 470 522 0
93 -522 -523 0
93 -470 522 523 626 0
-94 471 523 524 0
94 -471 0
94 -524 0
94 -523 0
95 523 -524 0
95 -471 523 -525 0
95 471 -523 524 -525 0
-95 -471 -523 0
-95 471 523 524 0
-95 -523 -524 0
-95 524 525 0
96 525 -97 0
96 524 -97 0
-96 97 0
-96 -524 -525 0
97 -526 0
97 -525 0
97 -472 98 0
-97 525 526 -98 0
-97 472 525 526 0
98 472 -99 0
98 -472 99 0
-98 -472 -99 0
-98 472 99 0
99 527 -629 0
99 -527 629 0
-99 -527 -629 0
-99 527 629 0
100 526 -527 101 0
100 -526 527 101 0
100 526 -629 101 0
-100 -101 0
-100 -526 -527 0
-100 526 527 629 0
-101 525 0
-101 526 -98 0
-101 472 526 0
101 -525 -526 0
101 -472 -525 98 0
102 526 -103 0
102 527 629 -103 0
102 -527 -629 -103 0
-102 103 0
-102 -526 527 -629 0
-102 -526 -527 629 0
103 -527 528 0
103 527 -528 0
103 -473 527 104 0
-103 -527 -528 0
-103 527 528 -104 0
-103 473 527 528 0
104 473 -105 0
104 -473 105 0
-104 -473 -105 0
-104 473 105 0
105 529 -631 0
105 -529 631 0
-105 -529 -631 0
-105 529 631 0
106 -107 109 -110 112 0
-106 -112 0
-106 107 0
-106 110 0
-106 -109 0
107 527 -108 0
107 -104 -108 0
107 473 -108 0
-107 108 0
-107 -473 -527 104 0
-108 473 528 529 631 0
108 -631 0
108 -529 0
108 -473 0
108 -528 0
-109 528 -529 0
-109 473 529 631 0
-109 528 -631 0
-109 -473 -528 529 0
109 -528 -529 0
109 473 -528 -631 0
109 -473 528 529 631 0
110 -474 111 0
110 -529 111 0
110 -530 111 0
-110 -111 0
-110 474 529 530 0
111 -473 -528 104 0
-111 473 0
-111 528 0
-111 -104 0
-112 529 -530 0
-112 474 -529 530 0
-112 529 113 0
-112 -529 530 -113 0
112 -529 -530 0
112 529 530 -113 0
112 -474 -529 113 0
113 474 -531 0
113 -474 531 0
-113 -474 -531 0
-113 474 531 0
114 -115 -132 -137 -141 0
-114 141 0
-114 115 0
-114 137 0
-114 132 0
115 -116 -122 129 -130 0
-115 130 0
-115 116 0
-115 -129 0
-115 122 0
116 530 -531 -117 -119 0
116 -530 531 -117 -119 0
-116 119 0
-116 530 531 0
-116 117 0
-116 -530 -531 0
117 530 -118 0
117 531 -118 0
117 474 -118 0
-117 118 0
-117 -474 -530 -531 0
-118 475 531 -634 0
-118 475 492 531 0
118 -475 0
118 -531 0
118 -492 634 0
119 531 -120 0
119 475 -492 120 0
119 -492 531 0
119 492 -531 120 0
-119 -531 -120 0
-119 492 531 120 0
-119 -475 -492 -531 0
120 634 -121 0
-120 -634 0
-120 121 0
-121 -475 -492 0
-121 475 492 0
121 475 -492 0
121 -475 492 0
122 532 124 -127 0
122 -123 124 -127 0
-122 127 0
-122 -124 0
-122 -532 123 0
123 -634 121 0
123 634 -121 0
-123 634 121 0
-123 -634 -121 0
-124 123 0
-124 -532 0
-124 -476 125 0
124 532 -123 -125 0
124 476 532 -123 0
125 476 -126 0
125 -476 126 0
-125 -476 -126 0
-125 476 126 0
126 533 -636 0
126 -533 636 0
-126 -533 -636 0
-126 533 636 0
127 -123 -128 0
127 -125 -128 0
127 476 -128 0
-127 128 0
-127 -476 123 125 0
-128 476 532 533 636 0
128 -636 0
128 -533 0
128 -476 0
128 -532 0
-129 533 -636 0
-129 532 -533 0
-129 -532 533 0
-129 476 532 0
129 -532 -533 0
129 -476 532 533 636 0
130 532 -131 0
130 126 -131 0
-130 131 0
-130 -532 -126 0
-131 477 533 534 0
131 -477 0
131 -534 0
131 -533 0
132 534 -133 -134 0
132 535 -133 -134 0
-132 134 0
-132 133 0
-132 -534 -535 0
133 533 -534 0
133 -477 533 -535 0
133 477 -533 534 -535 0
-133 -477 -533 0
-133 477 533 534 0
-133 -533 -534 0
-133 534 535 0
134 -536 0
134 -535 0
134 -478 135 0
-134 535 536 -135 0
-134 478 535 536 0
135 478 -136 0
135 -478 136 0
-135 -478 -136 0
-135 478 136 0
136 537 -639 0
136 -537 639 0
-136 -537 -639 0
-136 537 639 0
137 536 -138 -140 0
137 136 -138 -140 0
-137 140 0
-137 138 0
-137 -536 -136 0
138 536 -537 139 0
138 -536 537 139 0
138 536 -639 139 0
-138 -139 0
-138 -536 -537 0
-138 536 537 639 0
-139 535 0
-139 536 -135 0
-139 478 536 0
139 -535 -536 0
139 -478 -535 135 0
140 -479 -493 0
140 -537 -641 0
140 -479 537 641 0
140 479 493 -537 0
140 -493 537 641 0
-140 493 537 -641 0
-140 479 537 -641 0
-140 479 493 537 0
-140 -479 493 -537 641 0
-140 479 -493 -537 641 0
141 -142 -149 -156 -161 0
-141 161 0
-141 142 0
-141 156 0
-141 149 0
142 538 -539 143 147 0
142 -538 539 143 147 0
-142 -147 0
-142 538 539 0
-142 -143 0
-142 -538 -539 0
-143 144 146 0
-143 -480 146 0
-143 -538 146 0
143 -146 0
143 480 538 -144 0
144 -641 145 0
144 641 -145 0
-144 641 145 0
-144 -641 -145 0
-145 -479 -493 0
-145 479 493 0
145 479 -493 0
145 -479 493 0
146 -479 -493 -537 0
-146 479 0
-146 493 0
-146 537 0
-147 -144 148 0
-147 538 144 -148 0
-147 -538 -144 0
-147 480 538 148 0
147 -538 144 0
147 538 -144 -148 0
147 -480 144 148 0
148 480 -539 0
148 -480 539 0
-148 -480 -539 0
-148 480 539 0
149 539 -152 153 0
149 150 -152 153 0
-149 -153 0
-149 152 0
-149 -539 -150 0
150 644 -151 0
-150 -644 0
-150 151 0
-151 -481 -494 0
-151 481 494 0
151 481 -494 0
151 -481 494 0
152 -150 0
152 -539 0
152 -481 -494 0
-152 481 539 150 0
-152 494 539 150 0
-153 154 155 0
-153 -482 155 0
-153 -540 155 0
153 -155 0
153 482 540 -154 0
154 -644 151 0
154 644 -151 0
-154 644 151 0
-154 -644 -151 0
155 -481 -494 -539 0
-155 481 0
-155 494 0
-155 539 0
156 540 154 -159 0
156 -540 -154 -159 0
156 540 157 -159 0
-156 159 0
-156 -540 154 0
-156 540 -154 -157 0
157 482 -158 0
157 -482 158 0
-157 -482 -158 0
-157 482 158 0
158 541 -646 0
158 -541 646 0
-158 -541 -646 0
-158 541 646 0
159 -540 160 0
159 -541 160 0
159 -646 160 0
-159 -160 0
-159 540 541 646 0
160 -482 154 157 0
-160 482 0
-160 -157 0
-160 -154 0
161 -162 -167 -171 173 0
-161 -173 0
-161 162 0
-161 171 0
-161 167 0
162 163 164 -165 -166 0
-162 166 0
-162 -163 0
-162 165 0
-162 -164 0
-163 540 0
-163 -482 541 0
-163 541 646 0
163 -540 -541 0
163 482 -540 -646 0
164 -482 -540 157 0
-164 482 0
-164 540 0
-164 -157 0
165 -542 0
165 -541 0
165 -483 -543 0
-165 541 542 543 0
-165 483 541 542 0
166 541 542 -543 0
166 541 -542 543 0
166 483 542 -543 0
-166 -483 -541 0
-166 542 543 0
-166 -541 543 0
-166 -542 -543 0
167 543 -168 0
167 542 -168 0
-167 168 0
-167 -542 -543 0
168 -543 544 0
168 543 -544 0
168 -484 543 169 0
-168 -543 -544 0
-168 543 544 -169 0
-168 484 543 544 0
169 484 -170 0
169 -484 170 0
-169 -484 -170 0
-169 484 170 0
170 545 -649 0
170 -545 649 0
-170 -545 -649 0
-170 545 649 0
171 543 -172 0
171 -169 -172 0
171 484 -172 0
-171 172 0
-171 -484 -543 169 0
-172 484 544 545 649 0
172 -649 0
172 -545 0
172 -484 0
172 -544 0
-173 544 -545 0
-173 484 545 649 0
-173 544 -649 0
-173 -484 -544 545 0
173 -544 -545 0
173 484 -544 -649 0
173 -484 544 545 649 0
174 -175 -196 -205 -207 0
-174 207 0
-174 175 0
-174 205 0
-174 196 0
175 -176 183 185 -186 0
-175 186 0
-175 176 0
-175 -185 0
-175 -183 0
176 545 -546 -177 0
176 -545 546 -177 0
176 546 -177 -179 0
-176 177 0
-176 -545 -546 0
-176 545 546 179 0
177 -485 178 0
177 -545 178 0
177 -546 178 0
-177 -178 0
-177 485 545 546 0
178 -484 -544 169 0
-178 484 0
-178 544 0
-178 -169 0
-179 485 180 0
-179 -485 -180 0
179 -485 180 0
179 485 -180 0
-180 -547 -181 0
-180 547 181 0
180 547 -181 0
180 -547 181 0
181 -603 182 0
181 603 -182 0
-181 603 182 0
-181 -603 -182 0
-182 -453 -490 0
-182 453 490 0
182 453 -490 0
182 -453 490 0
-183 545 184 0
-183 179 184 0
-183 485 184 0
183 -184 0
183 -485 -545 -179 0
184 485 546 547 -181 0
-184 181 0
-184 -547 0
-184 -485 0
-184 -546 0
-185 546 -547 0
-185 485 547 -181 0
-185 546 181 0
-185 -485 -546 547 0
185 -546 -547 0
185 485 -546 181 0
185 -485 546 547 -181 0
186 -187 -189 192 -193 0
-186 193 0
-186 187 0
-186 -192 0
-186 189 0
187 546 -188 0
187 179 -188 0
187 485 -188 0
-187 188 0
-187 -485 -546 -179 0
-188 486 487 547 0
188 -486 0
188 -547 0
188 -487 0
189 486 -190 0
189 -486 -487 547 0
189 547 -190 0
189 -547 190 0
-189 487 547 190 0
-189 -486 -547 -190 0
-189 486 547 190 0
-190 486 191 0
-190 -486 -191 0
190 -486 191 0
190 486 -191 0
-191 -487 -651 0
-191 487 651 0
191 487 -651 0
191 -487 651 0
-192 547 0
-192 487 0
-192 486 -651 0
192 -487 -547 651 0
192 -486 -487 -547 0
193 -548 549 0
193 548 -549 0
193 -425 548 194 0
-193 -548 -549 0
-193 548 549 -194 0
-193 425 548 549 0
194 425 -195 0
194 -425 195 0
-194 -425 -195 0
-194 425 195 0
195 550 -604 0
195 -550 604 0
-195 -550 -604 0
-195 550 604 0
196 -197 199 -200 202 0
-196 -202 0
-196 197 0
-196 200 0
-196 -199 0
197 548 -198 0
197 -194 -198 0
197 425 -198 0
-197 198 0
-197 -425 -548 194 0
-198 425 549 550 604 0
198 -604 0
198 -550 0
198 -425 0
198 -549 0
-199 549 -550 0
-199 425 550 604 0
-199 549 -604 0
-199 -425 -549 550 0
199 -549 -550 0
199 425 -549 -604 0
199 -425 549 550 604 0
200 -426 201 0
200 -550 201 0
200 -551 201 0
-200 -201 0
-200 426 550 551 0
201 -425 -549 194 0
-201 425 0
-201 549 0
-201 -194 0
-202 550 -551 0
-202 426 -550 551 0
-202 550 203 0
-202 -550 551 -203 0
202 -550 -551 0
202 550 551 -203 0
202 -426 -550 203 0
203 426 -204 0
203 -426 204 0
-203 -426 -204 0
-203 426 204 0
204 552 -606 0
204 -552 606 0
-204 -552 -606 0
-204 552 606 0
205 551 -552 -206 0
205 551 -606 -206 0
205 -551 552 606 -206 0
-205 -551 -552 0
-205 -551 -606 0
-205 206 0
-205 551 552 606 0
206 -427 552 -554 0
206 427 -552 553 -554 0
206 552 -553 0
206 -427 -552 553 554 0
-206 -552 -553 0
-206 427 553 554 0
-206 -427 -552 -554 0
-206 552 553 554 0
-206 427 552 553 0
207 -208 -210 -215 -223 0
-207 223 0
-207 208 0
-207 215 0
-207 210 0
208 427 553 -209 0
208 -553 554 -209 0
208 553 -554 -209 0
-208 209 0
-208 -553 -554 0
-208 -427 553 554 0
-209 428 554 555 0
209 -428 0
209 -555 0
209 -554 0
210 555 211 -213 0
210 554 -555 -213 0
210 -554 555 -213 0
-210 213 0
-210 -554 -555 0
-210 554 555 -211 0
211 428 -212 0
211 -428 212 0
-211 -428 -212 0
-211 428 212 0
212 556 -609 0
212 -556 609 0
-212 -556 -609 0
-212 556 609 0
213 -555 214 0
213 -556 214 0
213 -609 214 0
-213 -214 0
-213 555 556 609 0
214 -428 -554 211 0
-214 428 0
-214 554 0
-214 -211 0
215 216 -217 221 -222 0
-215 222 0
-215 -216 0
-215 -221 0
-215 217 0
-216 555 0
-216 -428 556 0
-216 556 609 0
216 -555 -556 0
216 428 -555 -609 0
217 555 -218 0
217 428 -218 0
217 -211 -218 0
-217 218 0
-217 -428 -555 211 0
218 -557 0
218 -556 0
218 -429 219 0
-218 556 557 -219 0
-218 429 556 557 0
219 429 -220 0
219 -429 220 0
-219 -429 -220 0
-219 429 220 0
220 558 -611 0
220 -558 611 0
-220 -558 -611 0
-220 558 611 0
-221 556 0
-221 557 -219 0
-221 429 557 0
221 -556 -557 0
221 -429 -556 219 0
222 557 -558 0
222 -557 558 0
222 558 -611 0
-222 -557 -558 0
-222 557 558 611 0
223 -224 -227 229 -232 0
-223 232 0
-223 224 0
-223 -229 0
-223 227 0
224 557 -225 -226 0
224 220 -225 -226 0
-224 226 0
-224 225 0
-224 -557 -220 0
225 -558 559 0
225 558 -559 0
225 -430 559 -560 0
-225 -558 -559 0
-225 558 559 560 0
-225 430 558 559 0
226 -559 560 0
226 558 559 -560 0
226 430 559 -560 0
-226 559 560 0
-226 -559 -560 0
-226 -430 -558 -560 0
227 -431 228 0
227 -560 228 0
227 -561 228 0
-227 -228 0
-227 431 560 561 0
228 -430 -559 -560 0
-228 430 0
-228 559 0
-228 560 0
-229 560 -561 0
-229 431 -560 561 0
-229 560 230 0
-229 -560 561 -230 0
229 -560 -561 0
229 560 561 -230 0
229 -431 -560 230 0
230 431 -231 0
230 -431 231 0
-230 -431 -231 0
-230 431 231 0
231 562 -614 0
231 -562 614 0
-231 -562 -614 0
-231 562 614 0
232 561 -614 0
232 -561 562 614 0
232 561 -562 0
-232 -561 -562 0
-232 -561 -614 0
-232 561 562 614 0
233 -234 -337 386 404 0
-233 -404 0
-233 234 0
-233 -386 0
-233 337 0
234 -235 -258 -283 -310 0
-234 310 0
-234 235 0
-234 283 0
-234 258 0
235 -236 -240 -241 -243 0
-235 243 0
-235 236 0
-235 241 0
-235 240 0
236 563 -564 -237 0
236 563 -616 -237 0
236 -563 564 616 -237 0
-236 -563 -564 0
-236 -563 -616 0
-236 237 0
-236 563 564 616 0
237 432 -562 563 0
237 -432 562 238 0
237 562 -563 0
237 -562 563 -238 0
-237 562 563 -238 0
-237 -432 -562 238 0
-237 -562 -563 0
-237 432 562 563 0
238 432 -239 0
238 -432 239 0
-238 -432 -239 0
-238 432 239 0
239 564 -616 0
239 -564 616 0
-239 -564 -616 0
-239 564 616 0
240 -433 564 -566 0
240 433 -564 565 -566 0
240 564 -565 0
240 -433 -564 565 566 0
-240 -564 -565 0
-240 433 565 566 0
-240 -433 -564 -566 0
-240 564 565 566 0
-240 433 564 565 0
241 433 565 -242 0
241 -565 566 -242 0
241 565 -566 -242 0
-241 242 0
-241 -565 -566 0
-241 -433 565 566 0
-242 434 566 567 0
242 -434 0
242 -567 0
242 -566 0
243 -244 249 -250 -254 0
-243 254 0
-243 244 0
-243 250 0
-243 -249 0
244 567 245 -247 0
244 566 -567 -247 0
244 -566 567 -247 0
-244 247 0
-244 -566 -567 0
-244 566 567 -245 0
245 434 -246 0
245 -434 246 0
-245 -434 -246 0
-245 434 246 0
246 568 -619 0
246 -568 619 0
-246 -568 -619 0
-246 568 619 0
247 -567 248 0
247 -568 248 0
247 -619 248 0
-247 -248 0
-247 567 568 619 0
248 -434 -566 245 0
-248 434 0
-248 566 0
-248 -245 0
-249 567 0
-249 -434 568 0
-249 568 619 0
249 -567 -568 0
249 434 -567 -619 0
250 567 -251 0
250 434 -251 0
250 -245 -251 0
-250 251 0
-250 -434 -567 245 0
251 -569 0
251 -568 0
251 -435 252 0
-251 568 569 -252 0
-251 435 568 569 0
252 435 -253 0
252 -435 253 0
-252 -435 -253 0
-252 435 253 0
253 570 -621 0
253 -570 621 0
-253 -570 -621 0
-253 570 621 0
254 569 -255 -257 0
254 253 -255 -257 0
-254 257 0
-254 255 0
-254 -569 -253 0
255 569 -570 256 0
255 -569 570 256 0
255 569 -621 256 0
-255 -256 0
-255 -569 -570 0
-255 569 570 621 0
-256 568 0
-256 569 -252 0
-256 435 569 0
256 -568 -569 0
256 -435 -568 252 0
257 -570 571 0
257 570 -571 0
257 -436 571 -572 0
-257 -570 -571 0
-257 570 571 572 0
-257 436 570 571 0
258 -259 -273 -276 -277 0
-258 277 0
-258 259 0
-258 276 0
-258 273 0
259 -260 -261 263 -266 0
-259 266 0
-259 260 0
-259 -263 0
-259 261 0
260 -571 572 0
260 570 571 -572 0
260 436 571 -572 0
-260 571 572 0
-260 -571 -572 0
-260 -436 -570 -572 0
261 -437 262 0
261 -572 262 0
261 -573 262 0
-261 -262 0
-261 437 572 573 0
262 -436 -571 -572 0
-262 436 0
-262 571 0
-262 572 0
-263 572 -573 0
-263 437 -572 573 0
-263 572 264 0
-263 -572 573 -264 0
263 -572 -573 0
263 572 573 -264 0
263 -437 -572 264 0
264 437 -265 0
264 -437 265 0
-264 -437 -265 0
-264 437 265 0
265 574 -624 0
265 -574 624 0
-265 -574 -624 0
-265 574 624 0
266 573 -574 -267 0
266 573 -624 -267 0
266 -573 574 624 -267 0
-266 -573 -574 0
-266 -573 -624 0
-266 267 0
-266 573 574 624 0
267 574 -268 -271 0
267 575 -268 -271 0
-267 271 0
-267 268 0
-267 -574 -575 0
268 -575 0
268 -574 0
268 -438 269 0
-268 574 575 -269 0
-268 438 574 575 0
269 438 -270 0
269 -438 270 0
-269 -438 -270 0
-269 438 270 0
270 576 -626 0
270 -576 626 0
-270 -576 -626 0
-270 576 626 0
271 574 -272 0
271 -269 -272 0
271 438 -272 0
-271 272 0
-271 -438 -574 269 0
-272 438 575 576 626 0
272 -626 0
272 -576 0
272 -438 0
272 -575 0
273 270 274 -275 0
273 575 274 -275 0
-273 -274 0
-273 275 0
-273 -575 -270 0
-274 576 -626 0
-274 575 -576 0
-274 -575 576 0
-274 438 575 0
274 -575 -576 0
274 -438 575 576 626 0
-275 439 576 577 0
275 -439 0
275 -577 0
275 -576 0
276 576 -577 0
276 -439 576 -578 0
276 439 -576 577 -578 0
-276 -439 -576 0
-276 439 576 577 0
-276 -576 -577 0
-276 577 578 0
277 577 -278 -281 0
277 578 -278 -281 0
-277 281 0
-277 278 0
-277 -577 -578 0
278 -579 0
278 -578 0
278 -440 279 0
-278 578 579 -279 0
-278 440 578 579 0
279 440 -280 0
279 -440 280 0
-279 -440 -280 0
-279 440 280 0
280 580 -629 0
280 -580 629 0
-280 -580 -629 0
-280 580 629 0
281 579 -580 282 0
281 -579 580 282 0
281 579 -629 282 0
-281 -282 0
-281 -579 -580 0
-281 579 580 629 0
-282 578 0
-282 579 -279 0
-282 440 579 0
282 -578 -579 0
282 -440 -578 279 0
283 -284 -294 -301 -307 0
-283 307 0
-283 284 0
-283 301 0
-283 294 0
284 -285 291 -292 -293 0
-284 293 0
-284 285 0
-284 292 0
-284 -291 0
285 579 -286 -289 0
285 280 -286 -289 0
-285 289 0
-285 286 0
-285 -579 -280 0
286 -581 0
286 -580 0
286 -441 287 0
-286 580 581 -287 0
-286 441 580 581 0
287 441 -288 0
287 -441 288 0
-287 -441 -288 0
-287 441 288 0
288 582 -631 0
288 -582 631 0
-288 -582 -631 0
-288 582 631 0
289 581 -582 290 0
289 -581 582 290 0
289 581 -631 290 0
-289 -290 0
-289 -581 -582 0
-289 581 582 631 0
-290 580 0
-290 581 -287 0
-290 441 581 0
290 -580 -581 0
290 -441 -580 287 0
-291 581 0
-291 -582 -631 0
-291 582 631 0
291 -581 582 -631 0
291 -581 -582 631 0
292 -582 583 0
292 582 -583 0
292 -442 583 -584 0
-292 -582 -583 0
-292 582 583 584 0
-292 442 582 583 0
293 -583 584 0
293 582 583 -584 0
293 442 583 -584 0
-293 583 584 0
-293 -583 -584 0
-293 -442 -582 -584 0
294 585 -586 -295 0
294 585 -634 -295 0
294 -585 586 634 -295 0
-294 -585 -586 0
-294 -585 -634 0
-294 295 0
-294 585 586 634 0
295 296 -297 298 0
295 -585 296 298 0
-295 -298 0
-295 -296 0
-295 585 297 0
296 -442 -583 -584 0
-296 442 0
-296 583 0
-296 584 0
-297 443 584 0
297 -443 0
297 -584 0
-298 584 -585 0
-298 443 -584 585 0
-298 584 299 0
-298 -584 585 -299 0
298 -584 -585 0
298 584 585 -299 0
298 -443 -584 299 0
299 443 -300 0
299 -443 300 0
-299 -443 -300 0
-299 443 300 0
300 586 -634 0
300 -586 634 0
-300 -586 -634 0
-300 586 634 0
301 586 -302 -305 0
301 587 -302 -305 0
-301 305 0
-301 302 0
-301 -586 -587 0
302 -587 0
302 -586 0
302 -444 303 0
-302 586 587 -303 0
-302 444 586 587 0
303 444 -304 0
303 -444 304 0
-303 -444 -304 0
-303 444 304 0
304 588 -636 0
304 -588 636 0
-304 -588 -636 0
-304 588 636 0
305 586 -306 0
305 -303 -306 0
305 444 -306 0
-305 306 0
-305 -444 -586 303 0
-306 444 587 588 636 0
306 -636 0
306 -588 0
306 -444 0
306 -587 0
307 304 308 -309 0
307 587 308 -309 0
-307 -308 0
-307 309 0
-307 -587 -304 0
-308 588 -636 0
-308 587 -588 0
-308 -587 588 0
-308 444 587 0
308 -587 -588 0
308 -444 587 588 636 0
-309 445 588 589 0
309 -445 0
309 -589 0
309 -588 0
310 -311 -316 -322 -330 0
-310 330 0
-310 311 0
-310 322 0
-310 316 0
311 589 -312 -313 0
311 590 -312 -313 0
-311 313 0
-311 312 0
-311 -589 -590 0
312 588 -589 0
312 -445 588 -590 0
312 445 -588 589 -590 0
-312 -445 -588 0
-312 445 588 589 0
-312 -588 -589 0
-312 589 590 0
313 -591 0
313 -590 0
313 -446 314 0
-313 590 591 -314 0
-313 446 590 591 0
314 446 -315 0
314 -446 315 0
-314 -446 -315 0
-314 446 315 0
315 592 -639 0
315 -592 639 0
-315 -592 -639 0
-315 592 639 0
316 591 -317 -319 0
316 315 -317 -319 0
-316 319 0
-316 317 0
-316 -591 -315 0
317 591 -592 318 0
317 -591 592 318 0
317 591 -639 318 0
-317 -318 0
-317 -591 -592 0
-317 591 592 639 0
-318 590 0
-318 591 -314 0
-318 446 591 0
318 -590 -591 0
318 -446 -590 314 0
319 -592 593 0
319 592 -593 0
319 -447 592 320 0
-319 -592 -593 0
-319 592 593 -320 0
-319 447 592 593 0
320 447 -321 0
320 -447 321 0
-320 -447 -321 0
-320 447 321 0
321 594 -641 0
321 -594 641 0
-321 -594 -641 0
-321 594 641 0
322 -323 325 -326 328 0
-322 -328 0
-322 323 0
-322 326 0
-322 -325 0
323 592 -324 0
323 -320 -324 0
323 447 -324 0
-323 324 0
-323 -447 -592 320 0
-324 447 593 594 641 0
324 -641 0
324 -594 0
324 -447 0
324 -593 0
-325 593 -594 0
-325 447 594 641 0
-325 593 -641 0
-325 -447 -593 594 0
325 -593 -594 0
325 447 -593 -641 0
325 -447 593 594 641 0
326 -448 327 0
326 -594 327 0
326 -595 327 0
-326 -327 0
-326 448 594 595 0
327 -447 -593 320 0
-327 447 0
-327 593 0
-327 -320 0
-328 594 -595 0
-328 448 -594 595 0
-328 594 329 0
-328 -594 595 -329 0
328 -594 -595 0
328 594 595 -329 0
328 -448 -594 329 0
329 448 -596 0
329 -448 596 0
-329 -448 -596 0
-329 448 596 0
330 595 -596 -331 -334 0
330 -595 596 -331 -334 0
-330 334 0
-330 595 596 0
-330 331 0
-330 -595 -596 0
331 -597 0
331 -596 0
331 -449 332 0
-331 596 597 -332 0
-331 449 596 597 0
332 449 -333 0
332 -449 333 0
-332 -449 -333 0
-332 449 333 0
333 598 -644 0
333 -598 644 0
-333 -598 -644 0
-333 598 644 0
334 596 335 -336 0
334 597 335 -336 0
-334 336 0
-334 -335 0
-334 -596 -597 0
335 -449 -596 332 0
-335 449 0
-335 596 0
-335 -332 0
-336 449 597 598 644 0
336 -644 0
336 -598 0
336 -449 0
336 -597 0
337 -338 368 372 375 0
-337 -375 0
-337 338 0
-337 -372 0
-337 -368 0
338 -339 -355 -360 366 0
-338 -366 0
-338 339 0
-338 360 0
-338 355 0
339 340 -341 -347 -350 0
-339 350 0
-339 -340 0
-339 347 0
-339 341 0
-340 597 -598 0
-340 449 597 0
-340 597 -644 0
-340 -597 598 644 0
340 -597 -598 0
340 -597 -644 0
340 -449 597 598 644 0
341 598 -342 -345 0
341 599 -342 -345 0
-341 345 0
-341 342 0
-341 -598 -599 0
342 -599 0
342 -598 0
342 -450 343 0
-342 598 599 -343 0
-342 450 598 599 0
343 450 -344 0
343 -450 344 0
-343 -450 -344 0
-343 450 344 0
344 600 -646 0
344 -600 646 0
-344 -600 -646 0
-344 600 646 0
345 598 -346 0
345 -343 -346 0
345 450 -346 0
-345 346 0
-345 -450 -598 343 0
-346 450 599 600 646 0
346 -646 0
346 -600 0
346 -450 0
346 -599 0
347 344 348 -349 0
347 599 348 -349 0
-347 -348 0
-347 349 0
-347 -599 -344 0
-348 600 -646 0
-348 599 -600 0
-348 -599 600 0
-348 450 599 0
348 -599 -600 0
348 -450 599 600 646 0
-349 451 489 600 0
349 -451 0
349 -600 0
349 -489 0
350 -451 600 351 0
350 -489 600 351 0
350 451 489 -600 351 0
-350 -451 -600 0
-350 451 489 600 0
-350 -351 0
-350 -489 -600 0
-351 352 0
-351 -601 0
-351 -452 353 0
351 601 -352 -353 0
351 452 601 -352 0
-352 -451 -489 0
-352 451 489 0
352 451 -489 0
352 -451 489 0
353 452 -354 0
353 -452 354 0
-353 -452 -354 0
-353 452 354 0
354 602 -649 0
354 -602 649 0
-354 -602 -649 0
-354 602 649 0
355 601 -356 -358 0
355 354 -356 -358 0
-355 358 0
-355 356 0
-355 -601 -354 0
356 601 -602 357 0
356 -601 602 357 0
356 601 -649 357 0
-356 -357 0
-356 -601 -602 0
-356 601 602 649 0
-357 -352 0
-357 601 -353 0
-357 452 601 0
357 -601 352 0
357 -452 352 353 0
358 602 -359 0
358 -602 359 0
358 -453 -490 359 0
-358 -602 -359 0
-358 453 602 359 0
-358 490 602 359 0
359 603 -182 0
-359 -603 0
-359 182 0
360 361 -362 -363 0
360 -455 361 -363 0
-360 363 0
-360 -361 0
-360 455 362 0
361 -453 -490 -602 0
-361 453 0
-361 490 0
-361 602 0
-362 454 603 0
362 -454 0
362 -603 0
363 454 -364 0
363 -454 -455 603 0
363 603 -364 0
363 -603 364 0
-363 455 603 364 0
-363 -454 -603 -364 0
-363 454 603 364 0
-364 454 365 0
-364 -454 -365 0
364 -454 365 0
364 454 -365 0
-365 -455 -651 0
-365 455 651 0
365 455 -651 0
365 -455 651 0
-366 607 608 367 0
-366 605 -607 367 0
-366 -605 607 367 0
366 -367 0
366 -605 -607 0
366 605 607 -608 0
-367 603 0
-367 455 0
-367 454 -651 0
367 -455 -603 651 0
367 -454 -455 -603 0
-368 369 370 371 0
368 -371 0
368 -370 0
368 -369 0
369 -605 608 0
-369 605 0
-369 -608 0
-370 607 -608 0
-370 607 610 0
-370 607 -609 0
370 -607 0
370 608 609 -610 0
-371 -608 -610 0
-371 608 610 0
-371 609 -610 0
371 -608 610 0
371 608 -609 -610 0
-372 612 613 615 373 0
-372 612 -613 -615 373 0
372 -373 0
372 -613 615 0
372 -612 0
372 613 -615 0
-373 -610 612 374 0
-373 610 -612 374 0
-373 610 613 374 0
373 -374 0
373 -610 -612 0
373 610 612 -613 0
374 -610 613 0
-374 610 0
-374 -613 0
-375 376 378 380 0
375 -376 0
375 -378 0
375 -380 0
-376 377 0
376 -377 0
-377 618 0
-377 -617 0
-377 -615 0
377 615 617 -618 0
-378 615 617 379 0
-378 617 -618 379 0
378 -379 0
378 -617 0
378 -615 618 0
379 -615 -617 0
-379 615 0
-379 617 0
-380 620 381 382 0
-380 -618 381 382 0
380 -382 0
380 -381 0
380 618 -620 0
381 -618 620 0
-381 618 0
-381 -620 0
-382 623 383 385 0
-382 383 384 385 0
382 -385 0
382 -383 0
382 -623 -384 0
383 620 621 622 -623 0
-383 623 0
-383 -622 0
-383 -620 0
-383 -621 0
384 620 -621 622 0
-384 -620 0
-384 621 0
-384 -622 0
385 -620 -622 0
-385 620 0
-385 622 0
-386 387 394 396 398 0
386 -398 0
386 -387 0
386 -396 0
386 -394 0
-387 388 389 390 391 0
387 -388 0
387 -391 0
387 -390 0
387 -389 0
388 -620 623 0
-388 620 0
-388 -623 0
-389 622 -623 0
-389 622 625 0
-389 622 -624 0
389 -622 0
389 623 624 -625 0
-390 -623 -625 0
-390 623 625 0
-390 624 -625 0
390 -623 625 0
390 623 -624 -625 0
-391 627 628 630 392 0
-391 627 -628 -630 392 0
391 -392 0
391 -628 630 0
391 -627 0
391 628 -630 0
-392 -625 627 393 0
-392 625 -627 393 0
-392 625 628 393 0
392 -393 0
392 -625 -627 0
392 625 627 -628 0
393 -625 628 0
-393 625 0
-393 -628 0
-394 395 0
394 -395 0
-395 633 0
-395 -632 0
-395 -630 0
395 630 632 -633 0
-396 630 632 397 0
-396 632 -633 397 0
396 -397 0
396 -632 0
396 -630 633 0
397 -630 -632 0
-397 630 0
-397 632 0
-398 635 399 400 0
-398 -633 399 400 0
398 -400 0
398 -399 0
398 633 -635 0
399 -633 635 0
-399 633 0
-399 -635 0
-400 638 401 403 0
-400 401 402 403 0
400 -403 0
400 -401 0
400 -638 -402 0
401 635 636 637 -638 0
-401 638 0
-401 -637 0
-401 -635 0
-401 -636 0
402 635 -636 637 0
-402 -635 0
-402 636 0
-402 -637 0
403 -635 -637 0
-403 635 0
-403 637 0
-404 405 410 417 421 0
404 -421 0
404 -405 0
404 -417 0
404 -410 0
-405 406 408 409 0
405 -406 0
405 -409 0
405 -408 0
-406 637 -638 407 0
-406 637 640 407 0
406 -637 0
406 -407 0
406 638 -640 0
407 -635 638 0
-407 635 0
-407 -638 0
408 -638 640 0
-408 638 0
-408 -640 0
409 640 641 642 -643 0
-409 643 0
-409 -642 0
-409 -640 0
-409 -641 0
-410 411 412 414 415 0
410 -415 0
410 -411 0
410 -414 0
410 -412 0
-411 -640 642 0
-411 640 641 0
-411 642 643 0
-411 640 -642 0
411 -640 -642 0
411 640 -641 642 -643 0
-412 413 0
412 -413 0
413 -640 643 0
-413 640 0
-413 -643 0
-414 642 -643 0
-414 642 645 0
-414 642 -644 0
414 -642 0
414 643 644 -645 0
-415 644 416 0
-415 -643 416 0
-415 645 416 0
415 -416 0
415 643 -644 -645 0
416 -643 645 0
-416 643 0
-416 -645 0
-417 418 419 420 0
417 -418 0
417 -419 0
417 -420 0
-418 645 -647 0
-418 -645 647 0
-418 645 648 0
418 -645 -647 0
418 645 647 -648 0
419 -645 648 0
-419 645 0
-419 -648 0
-420 647 -648 0
-420 647 650 0
-420 647 -649 0
420 -647 0
420 648 649 -650 0
-421 -650 422 423 0
-421 652 422 423 0
421 -423 0
421 -422 0
421 650 -652 0
-422 -648 -650 0
-422 648 650 0
-422 649 -650 0
422 -648 650 0
422 648 -649 -650 0
-423 424 0
423 -424 0
424 -650 652 0
-424 650 0
-424 -652 0
-653 0
2 0

